WARNING: for repeatability, setting FPU to use double precision
============================[ Problem Statistics ]=============================
|                                                                             |
|  Number of variables:         15000                                         |
|  Number of clauses:           40000                                         |
|  Parse time:                   0.01 s                                       |
|                                                                             |
c ============================[ Search Statistics ]==============================
c | Conflicts |          ORIGINAL         |          LEARNT          | Progress |
c |           |    Vars  Clauses Literals |    Limit  Clauses Lit/Cl |          |
c ===============================================================================
c Switched to VSIDS.
c Switched to LRB.
c Switched to VSIDS.
c Switched to LRB.
c Switched to VSIDS.
c Switched to LRB.
c Switched to VSIDS.
c Switched to LRB.
c Switched to VSIDS.
c Switched to LRB.
c Switched to VSIDS.
c Switched to LRB.
c Switched to VSIDS.
c Switched to LRB.
c Switched to VSIDS.
c Switched to LRB.
c Switched to VSIDS.
c Switched to LRB.
c Switched to VSIDS.
c Switched to LRB.
c Switched to VSIDS.
c Switched to LRB.
c Switched to VSIDS.
c Switched to LRB.
c Switched to VSIDS.
c Switched to LRB.
c Switched to VSIDS.
c Switched to LRB.
c Switched to VSIDS.
c Switched to LRB.
c Switched to VSIDS.
c Switched to LRB.
c Switched to VSIDS.
c Switched to LRB.
c Switched to VSIDS.
c Switched to LRB.
c ===============================================================================
restarts                  : 122505
conflicts                 : 18031796       (5114 /sec)
decisions                 : 877289476      (0.00 % random) (248829 /sec)
propagations              : 11001308717    (3120347 /sec)
conflict literals         : 2498074417     (0.89 % deleted)

conflicts w/ DIP found    : 17231793       (95.56 % of conflicts)
conflicts w/ dangerous DIP: 0              (0.00 % of conflicts)
conflicts w/ DIP-learning : 296173         (1.64 % of conflicts)
decisions on ext vars     : 87080374       (9.93 % of decisions)
total ext vars            : 202330      
tried delete ext vars     : 192132      
deleted ext vars          : 192132      
max ext vars              : 10864       

Memory used               : 748.00 MB
CPU time                  : 3525.67 s
DIP computation time      : 166.998 s (4.74 % of total time)
ER_sel time               : 21.3418 s
ER_add time               : 0.741904 s
ER_delC time              : 0 s
ER_delV time              : 3.00538 s
ER_sub time               : 25.8012 s
ER_stat time              : 0 s

INDETERMINATE
